SCIP version 7.0.2 [precision: 8 byte] [memory: block] [mode: optimized] [LP solver: SoPlex 5.0.2] [GitHash: e9d280a398]
Copyright (C) 2002-2020 Konrad-Zuse-Zentrum fuer Informationstechnik Berlin (ZIB)

External codes: 
  SoPlex 5.0.2         Linear Programming Solver developed at Zuse Institute Berlin (soplex.zib.de) [GitHash: e24c304e]
  CppAD 20180000.0     Algorithmic Differentiation of C++ algorithms developed by B. Bell (www.coin-or.org/CppAD)
  MPIR 3.0.0           Multiple Precision Integers and Rationals Library developed by W. Hart (mpir.org)
  ZIMPL 3.4.0          Zuse Institute Mathematical Programming Language developed by T. Koch (zimpl.zib.de)
  PaPILO 1.0.2         parallel presolve for integer and linear optimization (https://github.com/lgottwald/PaPILO) [GitHash: 62d2842]
  bliss 0.73p          Computing Graph Automorphism Groups by T. Junttila and P. Kaski (http://www.tcs.hut.fi/Software/bliss/)
  Ipopt 3.12.9         Interior Point Optimizer developed by A. Waechter et.al. (www.coin-or.org/Ipopt)

user parameter file <scip.set> not found - using default parameters

read problem <C:\Users\cfpgo\Documents\GitHub\embedding\src\lp\WV_N16_B0.5_industry_correlated\IPL_linearized_WV_N16q1.00B8.lp>
============

original problem has 272 variables (0 bin, 272 int, 0 impl, 0 cont) and 769 constraints

solve problem
=============

presolving:
(round 1, fast)       0 del vars, 0 del conss, 0 add conss, 0 chg bounds, 16 chg sides, 16 chg coeffs, 0 upgd conss, 0 impls, 512 clqs
   (0.0s) running MILP presolver
   (0.0s) MILP presolver (4 rounds): 16 aggregations, 0 fixings, 0 bound changes
(round 2, medium)     16 del vars, 0 del conss, 0 add conss, 0 chg bounds, 16 chg sides, 16 chg coeffs, 0 upgd conss, 0 impls, 480 clqs
(round 3, fast)       16 del vars, 48 del conss, 0 add conss, 0 chg bounds, 16 chg sides, 16 chg coeffs, 0 upgd conss, 0 impls, 480 clqs
(round 4, exhaustive) 16 del vars, 48 del conss, 0 add conss, 0 chg bounds, 16 chg sides, 16 chg coeffs, 720 upgd conss, 0 impls, 480 clqs
(round 5, exhaustive) 16 del vars, 768 del conss, 240 add conss, 0 chg bounds, 16 chg sides, 16 chg coeffs, 720 upgd conss, 0 impls, 480 clqs
(round 6, exhaustive) 136 del vars, 888 del conss, 240 add conss, 0 chg bounds, 16 chg sides, 16 chg coeffs, 720 upgd conss, 0 impls, 240 clqs
   (0.0s) probing: 51/136 (37.5%) - 0 fixings, 0 aggregations, 0 implications, 0 bound changes
   (0.0s) probing aborted: 50/50 successive totally useless probings
   (0.0s) symmetry computation started: requiring (bin +, int -, cont +), (fixed: bin -, int +, cont -)
   (0.0s) no symmetry present
presolving (7 rounds: 7 fast, 5 medium, 4 exhaustive):
 136 deleted vars, 888 deleted constraints, 240 added constraints, 0 tightened bounds, 0 added holes, 16 changed sides, 16 changed coefficients
 0 implications, 240 cliques
presolved problem has 136 variables (136 bin, 0 int, 0 impl, 0 cont) and 121 constraints
    120 constraints of type <and>
      1 constraints of type <linear>
Presolving Time: 0.00

 time | node  | left  |LP iter|LP it/n|mem/heur|mdpt |vars |cons |rows |cuts |sepa|confs|strbr|  dualbound   | primalbound  |  gap   | compl. 
p 0.0s|     1 |     0 |     0 |     - |  clique|   0 | 136 | 121 | 241 |   0 |  0 |   0 |   0 | 5.146157e-02 | 1.546316e-02 | 232.80%| unknown
p 0.0s|     1 |     0 |     0 |     - |   locks|   0 | 136 | 121 | 241 |   0 |  0 |   0 |   0 | 5.146157e-02 | 2.980250e-02 |  72.68%| unknown
p 0.0s|     1 |     0 |     0 |     - | vbounds|   0 | 136 | 121 | 241 |   0 |  0 |   0 |   0 | 5.146157e-02 | 3.131880e-02 |  64.32%| unknown
  0.0s|     1 |     0 |   129 |     - |  3775k |   0 | 136 | 120 | 241 |   0 |  0 |   0 |   0 | 4.309343e-02 | 3.131880e-02 |  37.60%| unknown
L 0.0s|     1 |     0 |   129 |     - |undercov|   0 | 136 | 120 | 241 |   0 |  0 |   0 |   0 | 4.309343e-02 | 3.960470e-02 |   8.81%| unknown
  0.0s|     1 |     0 |   176 |     - |  3872k |   0 | 136 | 120 | 283 |  42 |  1 |   0 |   0 | 4.141178e-02 | 3.960470e-02 |   4.56%| unknown
  0.0s|     1 |     0 |   176 |     - |  3876k |   0 | 136 | 120 | 279 |  42 |  1 |   0 |   0 | 4.141178e-02 | 3.960470e-02 |   4.56%| unknown
  0.0s|     1 |     0 |   218 |     - |  3967k |   0 | 136 | 120 | 302 |  66 |  2 |   0 |   0 | 4.029436e-02 | 3.960470e-02 |   1.74%| unknown
  0.0s|     1 |     0 |   218 |     - |  3994k |   0 | 136 | 120 | 276 |  66 |  2 |   0 |   0 | 4.029436e-02 | 3.960470e-02 |   1.74%| unknown
  0.0s|     1 |     0 |   226 |     - |  4027k |   0 | 136 | 120 | 278 |  77 |  3 |   0 |   0 | 4.001641e-02 | 3.960470e-02 |   1.04%| unknown
r 0.0s|     1 |     0 |   226 |     - |randroun|   0 | 136 | 120 | 261 |   0 |  3 |   0 |   0 | 4.001641e-02 | 3.993306e-02 |   0.21%| unknown
  0.0s|     1 |     0 |   226 |     - |  4040k |   0 | 136 | 120 | 261 |  77 |  3 |   0 |   0 | 4.001641e-02 | 3.993306e-02 |   0.21%| unknown
  0.0s|     1 |     0 |   226 |     - |  4040k |   0 | 136 | 120 | 253 |  77 |  3 |   0 |   0 | 4.001641e-02 | 3.993306e-02 |   0.21%| unknown
  0.0s|     1 |     0 |   233 |     - |  4065k |   0 | 136 | 120 | 247 |  78 |  4 |   0 |   0 | 3.993306e-02 | 3.993306e-02 |   0.00%| unknown
  0.0s|     1 |     0 |   233 |     - |  4065k |   0 | 136 | 120 | 247 |  78 |  4 |   0 |   0 | 3.993306e-02 | 3.993306e-02 |   0.00%| unknown

SCIP Status        : problem is solved [optimal solution found]
Solving Time (sec) : 0.00
Solving Nodes      : 1
Primal Bound       : +3.99330642694575e-02 (7 solutions)
Dual Bound         : +3.99330642694575e-02
Gap                : 0.00 %

primal solution (original space):
=================================

objective value:                   0.0399330642694575
y(3,3)                                              1 	(obj:0.000122305144279443)
y(3,4)                                              1 	(obj:0.000168255917708762)
y(3,5)                                              1 	(obj:0.000198666318766306)
y(3,6)                                              1 	(obj:7.97873564534024e-05)
y(3,8)                                              1 	(obj:0.000136144946787442)
y(3,11)                                             1 	(obj:2.16462199061889e-05)
y(3,12)                                             1 	(obj:7.26322762697214e-05)
y(3,15)                                             1 	(obj:1.04374769362551e-05)
y(4,3)                                              1 	(obj:0.000168255917708762)
y(4,4)                                              1 	(obj:0.00541218946687249)
y(4,5)                                              1 	(obj:0.00558248357859452)
y(4,6)                                              1 	(obj:5.17695803886972e-06)
y(4,8)                                              1 	(obj:0.00114054300380257)
y(4,11)                                             1 	(obj:0.000222896424195935)
y(4,12)                                             1 	(obj:0.000539709173645697)
y(4,15)                                             1 	(obj:0.000633169317486919)
y(5,3)                                              1 	(obj:0.000198666318766306)
y(5,4)                                              1 	(obj:0.00558248357859452)
y(5,5)                                              1 	(obj:0.00591004777286271)
y(5,6)                                              1 	(obj:5.52809853104207e-05)
y(5,8)                                              1 	(obj:0.00114736933666871)
y(5,11)                                             1 	(obj:0.000251996220560534)
y(5,12)                                             1 	(obj:0.000594577242084524)
y(5,15)                                             1 	(obj:0.000634688475564342)
y(6,3)                                              1 	(obj:7.97873564534024e-05)
y(6,4)                                              1 	(obj:5.17695803886972e-06)
y(6,5)                                              1 	(obj:5.52809853104207e-05)
y(6,6)                                              1 	(obj:0.000304837363070514)
y(6,8)                                              1 	(obj:0.000146035515530202)
y(6,11)                                             1 	(obj:0.000189714251332105)
y(6,12)                                             1 	(obj:0.000223756565587964)
y(6,15)                                             1 	(obj:0.000121088878995622)
y(8,3)                                              1 	(obj:0.000136144946787442)
y(8,4)                                              1 	(obj:0.00114054300380257)
y(8,5)                                              1 	(obj:0.00114736933666871)
y(8,6)                                              1 	(obj:0.000146035515530202)
y(8,8)                                              1 	(obj:0.00054007558563642)
y(8,11)                                             1 	(obj:0.000127213650590902)
y(8,12)                                             1 	(obj:0.000287972193548292)
y(8,15)                                             1 	(obj:0.000240824594802541)
y(11,3)                                             1 	(obj:2.16462199061889e-05)
y(11,4)                                             1 	(obj:0.000222896424195935)
y(11,5)                                             1 	(obj:0.000251996220560534)
y(11,6)                                             1 	(obj:0.000189714251332105)
y(11,8)                                             1 	(obj:0.000127213650590902)
y(11,11)                                            1 	(obj:0.000242645823057447)
y(11,12)                                            1 	(obj:0.000192771468185859)
y(11,15)                                            1 	(obj:0.000168568401386384)
y(12,3)                                             1 	(obj:7.26322762697214e-05)
y(12,4)                                             1 	(obj:0.000539709173645697)
y(12,5)                                             1 	(obj:0.000594577242084524)
y(12,6)                                             1 	(obj:0.000223756565587964)
y(12,8)                                             1 	(obj:0.000287972193548292)
y(12,11)                                            1 	(obj:0.000192771468185859)
y(12,12)                                            1 	(obj:0.000469369112099537)
y(12,15)                                            1 	(obj:8.83323205600209e-05)
y(15,3)                                             1 	(obj:1.04374769362551e-05)
y(15,4)                                             1 	(obj:0.000633169317486919)
y(15,5)                                             1 	(obj:0.000634688475564342)
y(15,6)                                             1 	(obj:0.000121088878995622)
y(15,8)                                             1 	(obj:0.000240824594802541)
y(15,11)                                            1 	(obj:0.000168568401386384)
y(15,12)                                            1 	(obj:8.83323205600209e-05)
y(15,15)                                            1 	(obj:0.000368115862976871)
x(3)                                                1 	(obj:0)
x(4)                                                1 	(obj:0)
x(5)                                                1 	(obj:0)
x(6)                                                1 	(obj:0)
x(8)                                                1 	(obj:0)
x(11)                                               1 	(obj:0)
x(12)                                               1 	(obj:0)
x(15)                                               1 	(obj:0)

Statistics
==========

SCIP Status        : problem is solved [optimal solution found]
Total Time         :       0.00
  solving          :       0.00
  presolving       :       0.00 (included in solving)
  reading          :       0.00
  copying          :       0.00 (1 #copies) (minimal 0.00, maximal 0.00, average 0.00)
Original Problem   :
  Problem name     : C:\Users\cfpgo\Documents\GitHub\embedding\src\lp\WV_N16_B0.5_industry_correlated\IPL_linearized_WV_N16q1.00B8.lp
  Variables        : 272 (0 binary, 272 integer, 0 implicit integer, 0 continuous)
  Constraints      : 769 initial, 769 maximal
  Objective        : maximize, 256 non-zeros (abs.min = 2.99498e-07, abs.max = 0.00591005)
Presolved Problem  :
  Problem name     : t_C:\Users\cfpgo\Documents\GitHub\embedding\src\lp\WV_N16_B0.5_industry_correlated\IPL_linearized_WV_N16q1.00B8.lp
  Variables        : 136 (136 binary, 0 integer, 0 implicit integer, 0 continuous)
  Constraints      : 121 initial, 121 maximal
  Objective        : minimize, 136 non-zeros (abs.min = 5.98996e-07, abs.max = 0.011165)
  Nonzeros         : 376 constraint, 206 clique table
Presolvers         :   ExecTime  SetupTime  Calls  FixedVars   AggrVars   ChgTypes  ChgBounds   AddHoles    DelCons    AddCons   ChgSides   ChgCoefs
  boundshift       :       0.00       0.00      0          0          0          0          0          0          0          0          0          0
  convertinttobin  :       0.00       0.00      0          0          0          0          0          0          0          0          0          0
  domcol           :       0.00       0.00      1          0          0          0          0          0          0          0          0          0
  dualagg          :       0.00       0.00      0          0          0          0          0          0          0          0          0          0
  dualcomp         :       0.00       0.00      0          0          0          0          0          0          0          0          0          0
  dualinfer        :       0.00       0.00      0          0          0          0          0          0          0          0          0          0
  dualsparsify     :       0.00       0.00      1          0          0          0          0          0          0          0          0          0
  gateextraction   :       0.00       0.00      1          0          0          0          0          0        720        240          0          0
  implics          :       0.00       0.00      5          0          0          0          0          0          0          0          0          0
  inttobinary      :       0.00       0.00      0          0          0          0          0          0          0          0          0          0
  milp             :       0.00       0.00      1          0         16          0          0          0          0          0          0          0
  qpkktref         :       0.00       0.00      0          0          0          0          0          0          0          0          0          0
  redvub           :       0.00       0.00      0          0          0          0          0          0          0          0          0          0
  sparsify         :       0.00       0.00      1          0          0          0          0          0          0          0          0          0
  stuffing         :       0.00       0.00      0          0          0          0          0          0          0          0          0          0
  trivial          :       0.00       0.00      7          0          0          0          0          0          0          0          0          0
  tworowbnd        :       0.00       0.00      0          0          0          0          0          0          0          0          0          0
  dualfix          :       0.00       0.00      7          0          0          0          0          0          0          0          0          0
  genvbounds       :       0.00       0.00      0          0          0          0          0          0          0          0          0          0
  probing          :       0.00       0.00      1          0          0          0          0          0          0          0          0          0
  pseudoobj        :       0.00       0.00      0          0          0          0          0          0          0          0          0          0
  symmetry         :       0.00       0.00      1          0          0          0          0          0          0          0          0          0
  vbounds          :       0.00       0.00      1          0          0          0          0          0          0          0          0          0
  and              :       0.00       0.00      4          0        120          0          0          0        120          0          0          0
  linear           :       0.00       0.00      9          0          0          0          0          0         48          0         16         16
  benders          :       0.00       0.00      0          0          0          0          0          0          0          0          0          0
  components       :       0.00       0.00      1          0          0          0          0          0          0          0          0          0
  root node        :          -          -      -         52          -          -         52          -          -          -          -          -
Constraints        :     Number  MaxNumber  #Separate #Propagate    #EnfoLP    #EnfoRelax  #EnfoPS    #Check   #ResProp    Cutoffs    DomReds       Cuts    Applied      Conss   Children
  benderslp        :          0          0          0          0          0          0          0         18          0          0          0          0          0          0          0
  integral         :          0          0          0          0          0          0          0         18          0          0          0          0          0          0          0
  and              :        120        120          4        245          0          0          0         13          0          0          1         81          3          0          0
  linear           :          1          1          4        235          0          0          0          9          0          0          0          0          0          0          0
  benders          :          0          0          0          0          0          0          0          8          0          0          0          0          0          0          0
  countsols        :          0          0          0          0          0          0          0          8          0          0          0          0          0          0          0
  components       :          0          0          0          0          0          0          0          0          0          0          0          0          0          0          0
Constraint Timings :  TotalTime  SetupTime   Separate  Propagate     EnfoLP     EnfoPS     EnfoRelax   Check    ResProp    SB-Prop
  benderslp        :       0.00       0.00       0.00       0.00       0.00       0.00       0.00       0.00       0.00       0.00
  integral         :       0.00       0.00       0.00       0.00       0.00       0.00       0.00       0.00       0.00       0.00
  and              :       0.00       0.00       0.00       0.00       0.00       0.00       0.00       0.00       0.00       0.00
  linear           :       0.00       0.00       0.00       0.00       0.00       0.00       0.00       0.00       0.00       0.00
  benders          :       0.00       0.00       0.00       0.00       0.00       0.00       0.00       0.00       0.00       0.00
  countsols        :       0.00       0.00       0.00       0.00       0.00       0.00       0.00       0.00       0.00       0.00
  components       :       0.00       0.00       0.00       0.00       0.00       0.00       0.00       0.00       0.00       0.00
Propagators        : #Propagate   #ResProp    Cutoffs    DomReds
  dualfix          :          3          0          0          0
  genvbounds       :          0          0          0          0
  nlobbt           :          0          0          0          0
  obbt             :          0          0          0          0
  probing          :          0          0          0          0
  pseudoobj        :         15          0          0          2
  redcost          :          8          0          0         25
  rootredcost      :          0          0          0          0
  symmetry         :          0          0          0          0
  vbounds          :        146          0          0          0
Propagator Timings :  TotalTime  SetupTime   Presolve  Propagate    ResProp    SB-Prop
  dualfix          :       0.00       0.00       0.00       0.00       0.00       0.00
  genvbounds       :       0.00       0.00       0.00       0.00       0.00       0.00
  nlobbt           :       0.00       0.00       0.00       0.00       0.00       0.00
  obbt             :       0.00       0.00       0.00       0.00       0.00       0.00
  probing          :       0.00       0.00       0.00       0.00       0.00       0.00
  pseudoobj        :       0.00       0.00       0.00       0.00       0.00       0.00
  redcost          :       0.00       0.00       0.00       0.00       0.00       0.00
  rootredcost      :       0.00       0.00       0.00       0.00       0.00       0.00
  symmetry         :       0.00       0.00       0.00       0.00       0.00       0.00
  vbounds          :       0.00       0.00       0.00       0.00       0.00       0.00
Conflict Analysis  :       Time      Calls    Success    DomReds  Conflicts   Literals    Reconvs ReconvLits   Dualrays   Nonzeros   LP Iters   (pool size: [--,--])
  propagation      :       0.00          0          0          -          0        0.0          0        0.0          -          -          -
  infeasible LP    :       0.00          0          0          -          0        0.0          0        0.0          0        0.0          0
  bound exceed. LP :       0.00          3          0          -          0        0.0          0        0.0          0        0.0         30
  strong branching :       0.00          0          0          -          0        0.0          0        0.0          -          -          0
  pseudo solution  :       0.00          0          0          -          0        0.0          0        0.0          -          -          -
  applied globally :       0.00          -          -          0          0        0.0          -          -          0          -          -
  applied locally  :          -          -          -          0          0        0.0          -          -          0          -          -
Separators         :   ExecTime  SetupTime      Calls    Cutoffs    DomReds       Cuts    Applied      Conss
  cut pool         :       0.00                     7          -          -        141          -          -    (maximal pool size: 158)
  aggregation      :       0.00       0.00          4          0          0          0          0          0
  cgmip            :       0.00       0.00          0          0          0          0          0          0
  clique           :       0.00       0.00          4          0          0          0          0          0
  closecuts        :       0.00       0.00          0          0          0          0          0          0
  cmir             :       0.00       0.00          0          0          0          0          0          0
  convexproj       :       0.00       0.00          0          0          0          0          0          0
  disjunctive      :       0.00       0.00          0          0          0          0          0          0
  eccuts           :       0.00       0.00          0          0          0          0          0          0
  flowcover        :       0.00       0.00          0          0          0          0          0          0
  gauge            :       0.00       0.00          0          0          0          0          0          0
  gomory           :       0.00       0.00          4          0          0         71          4          0
  impliedbounds    :       0.00       0.00          4          0         24         78         71          0
  intobj           :       0.00       0.00          0          0          0          0          0          0
  mcf              :       0.00       0.00          1          0          0          0          0          0
  oddcycle         :       0.00       0.00          0          0          0          0          0          0
  rapidlearning    :       0.00       0.00          0          0          0          0          0          0
  strongcg         :       0.00       0.00          4          0          0          7          0          0
  zerohalf         :       0.00       0.00          4          0          0          2          0          0
Pricers            :   ExecTime  SetupTime      Calls       Vars
  problem variables:       0.00          -          0          0
Branching Rules    :   ExecTime  SetupTime   BranchLP  BranchExt   BranchPS    Cutoffs    DomReds       Cuts      Conss   Children
  allfullstrong    :       0.00       0.00          0          0          0          0          0          0          0          0
  cloud            :       0.00       0.00          0          0          0          0          0          0          0          0
  distribution     :       0.00       0.00          0          0          0          0          0          0          0          0
  fullstrong       :       0.00       0.00          0          0          0          0          0          0          0          0
  inference        :       0.00       0.00          0          0          0          0          0          0          0          0
  leastinf         :       0.00       0.00          0          0          0          0          0          0          0          0
  lookahead        :       0.00       0.00          0          0          0          0          0          0          0          0
  mostinf          :       0.00       0.00          0          0          0          0          0          0          0          0
  multaggr         :       0.00       0.00          0          0          0          0          0          0          0          0
  nodereopt        :       0.00       0.00          0          0          0          0          0          0          0          0
  pscost           :       0.00       0.00          0          0          0          0          0          0          0          0
  random           :       0.00       0.00          0          0          0          0          0          0          0          0
  relpscost        :       0.00       0.00          0          0          0          0          0          0          0          0
  vanillafullstrong:       0.00       0.00          0          0          0          0          0          0          0          0
Primal Heuristics  :   ExecTime  SetupTime      Calls      Found       Best
  LP solutions     :       0.00          -          -          0          0
  relax solutions  :       0.00          -          -          0          0
  pseudo solutions :       0.00          -          -          0          0
  strong branching :       0.00          -          -          0          0
  actconsdiving    :       0.00       0.00          0          0          0
  adaptivediving   :       0.00       0.00          0          0          0
  alns             :       0.00       0.00          0          0          0
  bound            :       0.00       0.00          0          0          0
  clique           :       0.00       0.00          1          1          1
  coefdiving       :       0.00       0.00          0          0          0
  completesol      :       0.00       0.00          0          0          0
  conflictdiving   :       0.00       0.00          0          0          0
  crossover        :       0.00       0.00          0          0          0
  dins             :       0.00       0.00          0          0          0
  distributiondivin:       0.00       0.00          0          0          0
  dualval          :       0.00       0.00          0          0          0
  farkasdiving     :       0.00       0.00          0          0          0
  feaspump         :       0.00       0.00          0          0          0
  fixandinfer      :       0.00       0.00          0          0          0
  fracdiving       :       0.00       0.00          0          0          0
  gins             :       0.00       0.00          0          0          0
  guideddiving     :       0.00       0.00          0          0          0
  indicator        :       0.00       0.00          0          0          0
  intdiving        :       0.00       0.00          0          0          0
  intshifting      :       0.00       0.00          0          0          0
  linesearchdiving :       0.00       0.00          0          0          0
  localbranching   :       0.00       0.00          0          0          0
  locks            :       0.00       0.00          1          1          1
  lpface           :       0.00       0.00          0          0          0
  mpec             :       0.00       0.00          0          0          0
  multistart       :       0.00       0.00          0          0          0
  mutation         :       0.00       0.00          0          0          0
  nlpdiving        :       0.00       0.00          0          0          0
  objpscostdiving  :       0.00       0.00          0          0          0
  octane           :       0.00       0.00          0          0          0
  ofins            :       0.00       0.00          0          0          0
  oneopt           :       0.00       0.00          3          0          0
  padm             :       0.00       0.00          0          0          0
  proximity        :       0.00       0.00          0          0          0
  pscostdiving     :       0.00       0.00          0          0          0
  randrounding     :       0.00       0.00          4          1          1
  rens             :       0.00       0.00          0          0          0
  reoptsols        :       0.00       0.00          0          0          0
  repair           :       0.00       0.00          0          0          0
  rins             :       0.00       0.00          0          0          0
  rootsoldiving    :       0.00       0.00          0          0          0
  rounding         :       0.00       0.00          4          0          0
  shiftandpropagate:       0.00       0.00          0          0          0
  shifting         :       0.00       0.00          4          2          0
  simplerounding   :       0.00       0.00          6          0          0
  subnlp           :       0.00       0.00          0          0          0
  trivial          :       0.00       0.00          2          0          0
  trivialnegation  :       0.00       0.00          0          0          0
  trustregion      :       0.00       0.00          0          0          0
  trysol           :       0.00       0.00          0          0          0
  twoopt           :       0.00       0.00          0          0          0
  undercover       :       0.00       0.00          1          1          1
  vbounds          :       0.00       0.00          1          1          1
  veclendiving     :       0.00       0.00          0          0          0
  zeroobj          :       0.00       0.00          0          0          0
  zirounding       :       0.00       0.00          0          0          0
  other solutions  :          -          -          -          0          -
Diving (single)    :      Calls      Nodes   LP Iters Backtracks  Conflicts   MinDepth   MaxDepth   AvgDepth  RoundSols  NLeafSols  MinSolDpt  MaxSolDpt  AvgSolDpt
  actconsdiving    :          0          -          -          -          -          -          -          -          -          -          -          -          -
  coefdiving       :          0          -          -          -          -          -          -          -          -          -          -          -          -
  conflictdiving   :          0          -          -          -          -          -          -          -          -          -          -          -          -
  distributiondivin:          0          -          -          -          -          -          -          -          -          -          -          -          -
  farkasdiving     :          0          -          -          -          -          -          -          -          -          -          -          -          -
  fracdiving       :          0          -          -          -          -          -          -          -          -          -          -          -          -
  guideddiving     :          0          -          -          -          -          -          -          -          -          -          -          -          -
  linesearchdiving :          0          -          -          -          -          -          -          -          -          -          -          -          -
  pscostdiving     :          0          -          -          -          -          -          -          -          -          -          -          -          -
  veclendiving     :          0          -          -          -          -          -          -          -          -          -          -          -          -
Diving (adaptive)  :      Calls      Nodes   LP Iters Backtracks  Conflicts   MinDepth   MaxDepth   AvgDepth  RoundSols  NLeafSols  MinSolDpt  MaxSolDpt  AvgSolDpt
  actconsdiving    :          0          -          -          -          -          -          -          -          -          -          -          -          -
  coefdiving       :          0          -          -          -          -          -          -          -          -          -          -          -          -
  conflictdiving   :          0          -          -          -          -          -          -          -          -          -          -          -          -
  distributiondivin:          0          -          -          -          -          -          -          -          -          -          -          -          -
  farkasdiving     :          0          -          -          -          -          -          -          -          -          -          -          -          -
  fracdiving       :          0          -          -          -          -          -          -          -          -          -          -          -          -
  guideddiving     :          0          -          -          -          -          -          -          -          -          -          -          -          -
  linesearchdiving :          0          -          -          -          -          -          -          -          -          -          -          -          -
  pscostdiving     :          0          -          -          -          -          -          -          -          -          -          -          -          -
  veclendiving     :          0          -          -          -          -          -          -          -          -          -          -          -          -
Neighborhoods      :      Calls  SetupTime  SolveTime SolveNodes       Sols       Best       Exp3  EpsGreedy        UCB TgtFixRate  Opt  Inf Node Stal  Sol  Usr Othr Actv
  rens             :          0       0.00       0.00          0          0          0    0.00000   -1.00000    1.00000      0.900    0    0    0    0    0    0    0    1
  rins             :          0       0.00       0.00          0          0          0    0.00000   -1.00000    1.00000      0.900    0    0    0    0    0    0    0    1
  mutation         :          0       0.00       0.00          0          0          0    0.00000   -1.00000    1.00000      0.900    0    0    0    0    0    0    0    1
  localbranching   :          0       0.00       0.00          0          0          0    0.00000   -1.00000    1.00000      0.900    0    0    0    0    0    0    0    1
  crossover        :          0       0.00       0.00          0          0          0    0.00000   -1.00000    1.00000      0.900    0    0    0    0    0    0    0    1
  proximity        :          0       0.00       0.00          0          0          0    0.00000   -1.00000    1.00000      0.900    0    0    0    0    0    0    0    1
  zeroobjective    :          0       0.00       0.00          0          0          0    0.00000   -1.00000    1.00000      0.900    0    0    0    0    0    0    0    1
  dins             :          0       0.00       0.00          0          0          0    0.00000   -1.00000    1.00000      0.900    0    0    0    0    0    0    0    1
  trustregion      :          0       0.00       0.00          0          0          0    0.00000   -1.00000    1.00000      0.900    0    0    0    0    0    0    0    0
LP                 :       Time      Calls Iterations  Iter/call   Iter/sec  Time-0-It Calls-0-It    ItLimit
  primal LP        :       0.00          0          0       0.00          -       0.00          0
  dual LP          :       0.00         12        233      38.83          -       0.00          6
  lex dual LP      :       0.00          0          0       0.00          -
  barrier LP       :       0.00          0          0       0.00          -       0.00          0
  resolve instable :       0.00          0          0       0.00          -
  diving/probing LP:       0.00          0          0       0.00          -
  strong branching :       0.00          0          0       0.00          -          -          -          0
    (at root node) :          -          0          0       0.00          -
  conflict analysis:       0.00          3         30      10.00          -
B&B Tree           :
  number of runs   :          1
  nodes            :          1 (0 internal, 1 leaves)
  feasible leaves  :          0
  infeas. leaves   :          0
  objective leaves :          0
  nodes (total)    :          1 (0 internal, 1 leaves)
  nodes left       :          0
  max depth        :          0
  max depth (total):          0
  backtracks       :          0 (0.0%)
  early backtracks :          0 (0.0%)
  nodes exc. ref.  :          0 (0.0%)
  delayed cutoffs  :          0
  repropagations   :          0 (0 domain reductions, 0 cutoffs)
  avg switch length:       2.00
  switching time   :       0.00
Estim. Tree Size   :          1
Estimation Tree    : 1 nodes (1 visited, 0 internal, 1 leaves, 0 open), weight: 1.0000 completed 1.0000
Estimations        :      estim      value      trend resolution     smooth
  wbe              :          1          -          -          -          -
  tree-profile     :         -1          -          -          -          -
  gap              :          1    1.00000    1.00000          1          1
  tree-weight      :          1    1.00000    1.00000          1          1
  leaf-frequency   :          1    0.50000    1.00000          1          1
  ssg              :          1    0.00000   -1.00000          1          1
  open-nodes       :          1    0.00000    0.00000          1          1
Root Node          :
  First LP value   : +4.30934270165302e-02
  First LP Iters   :        129
  First LP Time    :       0.00
  Final Dual Bound : +3.99330642694575e-02
  Final Root Iters :        233
  Root LP Estimate :                     -
Solution           :
  Solutions found  :          7 (5 improvements)
  First Solution   : +1.54631615720314e-02   (in run 1, after 1 nodes, 0.00 seconds, depth 7, found by <clique>)
  Gap First Sol.   :     232.80 %
  Gap Last Sol.    :       0.21 %
  Primal Bound     : +3.99330642694575e-02   (in run 1, after 1 nodes, 0.00 seconds, depth 2, found by <randrounding>)
  Dual Bound       : +3.99330642694575e-02
  Gap              :       0.00 %
Integrals          :      Total       Avg%
  primal-dual      :       0.00       0.00
  primal-ref       :       0.00       0.00
  dual-ref         :       0.00       0.00
